id: 369
name: model10
group: meszaros/misc
method: 1

Gurobi 7.0.2 (linux64, Matlab) logging started Tue Apr 17 15:57:51 2018


Gurobi 7.0.2 (linux64) logging started Tue Apr 17 15:57:51 2018

Optimize a model with 4400 rows, 15447 columns and 149000 nonzeros
Coefficient statistics:
  Matrix range     [2e-05, 2e+04]
  Objective range  [1e-01, 2e+03]
  Bounds range     [1e-05, 3e+02]
  RHS range        [1e-02, 5e+01]
Presolve removed 1660 rows and 5295 columns
Presolve time: 0.03s
Presolved: 2740 rows, 10152 columns, 94806 nonzeros

Iteration    Objective       Primal Inf.    Dual Inf.      Time
       0   -2.2560290e+30   4.319899e+30   2.256029e+00      0s
Extra one simplex iteration after uncrush
   21192   -1.5459962e+05   0.000000e+00   0.000000e+00      4s

Solved in 21192 iterations and 4.19 seconds
Optimal objective -1.545996213e+05
status: OPTIMAL
